certificates/rado_a11_c247_N36.cnf
c Rad2 upper bound instance: x1 + 11*x2 - x3 = 247, interval [1,36]
p cnf 36 232
1 7 23 0
-1 -7 -23 0
1 18 24 0
-1 -18 -24 0
1 25 29 0
-1 -25 -29 0
2 8 23 0
-2 -8 -23 0
2 19 24 0
-2 -19 -24 0
2 25 30 0
-2 -25 -30 0
3 9 23 0
-3 -9 -23 0
3 20 24 0
-3 -20 -24 0
3 25 31 0
-3 -25 -31 0
4 10 23 0
-4 -10 -23 0
4 21 24 0
-4 -21 -24 0
4 25 32 0
-4 -25 -32 0
5 11 23 0
-5 -11 -23 0
5 22 24 0
-5 -22 -24 0
5 25 33 0
-5 -25 -33 0
1 6 22 0
-1 -6 -22 0
6 12 23 0
-6 -12 -23 0
6 23 24 0
-6 -23 -24 0
6 25 34 0
-6 -25 -34 0
2 7 22 0
-2 -7 -22 0
7 13 23 0
-7 -13 -23 0
7 24 0
-7 -24 0
7 25 35 0
-7 -25 -35 0
3 8 22 0
-3 -8 -22 0
8 14 23 0
-8 -14 -23 0
8 24 25 0
-8 -24 -25 0
8 25 36 0
-8 -25 -36 0
4 9 22 0
-4 -9 -22 0
9 15 23 0
-9 -15 -23 0
9 24 26 0
-9 -24 -26 0
5 10 22 0
-5 -10 -22 0
10 16 23 0
-10 -16 -23 0
10 24 27 0
-10 -24 -27 0
6 11 22 0
-6 -11 -22 0
11 17 23 0
-11 -17 -23 0
11 24 28 0
-11 -24 -28 0
7 12 22 0
-7 -12 -22 0
12 18 23 0
-12 -18 -23 0
12 24 29 0
-12 -24 -29 0
8 13 22 0
-8 -13 -22 0
13 19 23 0
-13 -19 -23 0
13 24 30 0
-13 -24 -30 0
9 14 22 0
-9 -14 -22 0
14 20 23 0
-14 -20 -23 0
14 24 31 0
-14 -24 -31 0
10 15 22 0
-10 -15 -22 0
15 21 23 0
-15 -21 -23 0
15 24 32 0
-15 -24 -32 0
11 16 22 0
-11 -16 -22 0
16 22 23 0
-16 -22 -23 0
16 24 33 0
-16 -24 -33 0
1 17 21 0
-1 -17 -21 0
12 17 22 0
-12 -17 -22 0
17 23 0
-17 -23 0
17 24 34 0
-17 -24 -34 0
2 18 21 0
-2 -18 -21 0
13 18 22 0
-13 -18 -22 0
18 23 24 0
-18 -23 -24 0
18 24 35 0
-18 -24 -35 0
3 19 21 0
-3 -19 -21 0
14 19 22 0
-14 -19 -22 0
19 23 25 0
-19 -23 -25 0
19 24 36 0
-19 -24 -36 0
4 20 21 0
-4 -20 -21 0
15 20 22 0
-15 -20 -22 0
20 23 26 0
-20 -23 -26 0
5 21 0
-5 -21 0
16 21 22 0
-16 -21 -22 0
21 23 27 0
-21 -23 -27 0
6 21 22 0
-6 -21 -22 0
17 22 0
-17 -22 0
22 23 28 0
-22 -23 -28 0
7 21 23 0
-7 -21 -23 0
18 22 23 0
-18 -22 -23 0
23 29 0
-23 -29 0
8 21 24 0
-8 -21 -24 0
19 22 24 0
-19 -22 -24 0
23 24 30 0
-23 -24 -30 0
9 21 25 0
-9 -21 -25 0
20 22 25 0
-20 -22 -25 0
23 25 31 0
-23 -25 -31 0
10 21 26 0
-10 -21 -26 0
21 22 26 0
-21 -22 -26 0
23 26 32 0
-23 -26 -32 0
11 21 27 0
-11 -21 -27 0
22 27 0
-22 -27 0
23 27 33 0
-23 -27 -33 0
1 20 28 0
-1 -20 -28 0
12 21 28 0
-12 -21 -28 0
23 28 34 0
-23 -28 -34 0
2 20 29 0
-2 -20 -29 0
13 21 29 0
-13 -21 -29 0
22 24 29 0
-22 -24 -29 0
23 29 35 0
-23 -29 -35 0
3 20 30 0
-3 -20 -30 0
14 21 30 0
-14 -21 -30 0
22 25 30 0
-22 -25 -30 0
23 30 36 0
-23 -30 -36 0
4 20 31 0
-4 -20 -31 0
15 21 31 0
-15 -21 -31 0
22 26 31 0
-22 -26 -31 0
5 20 32 0
-5 -20 -32 0
16 21 32 0
-16 -21 -32 0
22 27 32 0
-22 -27 -32 0
6 20 33 0
-6 -20 -33 0
17 21 33 0
-17 -21 -33 0
22 28 33 0
-22 -28 -33 0
7 20 34 0
-7 -20 -34 0
18 21 34 0
-18 -21 -34 0
22 29 34 0
-22 -29 -34 0
8 20 35 0
-8 -20 -35 0
19 21 35 0
-19 -21 -35 0
22 30 35 0
-22 -30 -35 0
9 20 36 0
-9 -20 -36 0
20 21 36 0
-20 -21 -36 0
22 31 36 0
-22 -31 -36 0
