certificates/rado_a11_c247_N36.drat
22 -33 -34 -35 0
25 -23 29 31 0
-33 -34 -35 -36 0
-25 33 -34 -35 0
25 31 0
d 25 23 31 0
-34 -35 -36 0
d -33 -34 -35 -36 0
25 -35 -36 0
-35 -36 0
d -34 -35 -36 0
-25 -36 0
-36 0
-20 -7 25 0
-7 25 0
d -20 -7 25 0
25 0
20 0
-22 0
17 0
27 0
31 0
-24 0
29 0
19 0
5 0
-23 0
-3 0
-4 0
7 0
-1 0
-2 0
-21 0
-33 0
-32 0
28 0
15 0
16 0
18 0
30 0
6 0
10 0
8 0
9 0
0
